(set-info :smt-lib-version 2.6)
(set-logic ALL)
(set-info :source |
Benchmarks used in the followin paper:
Big proof engines as little proof engines: new results on rewrite-based satisfiability procedure
Alessandro Armando, Maria Paola Bonacina, Silvio Ranise, Stephan Schulz. 
PDPAR'05
http://www.ai.dist.unige.it/pdpar05/


|)
(set-info :category "crafted")
(set-info :status sat)

(declare-sort Element 0)
(declare-fun a_318 () (Seq Element))
(declare-fun a_320 () (Seq Element))
(declare-fun a_322 () (Seq Element))
(declare-fun a_324 () (Seq Element))
(declare-fun a_326 () (Seq Element))
(declare-fun a_328 () (Seq Element))
(declare-fun a_330 () (Seq Element))
(declare-fun a_332 () (Seq Element))
(declare-fun a_334 () (Seq Element))
(declare-fun a_336 () (Seq Element))
(declare-fun a_338 () (Seq Element))
(declare-fun a_340 () (Seq Element))
(declare-fun a_341 () (Seq Element))
(declare-fun a_342 () (Seq Element))
(declare-fun a_344 () (Seq Element))
(declare-fun a_346 () (Seq Element))
(declare-fun a_348 () (Seq Element))
(declare-fun a_350 () (Seq Element))
(declare-fun a_352 () (Seq Element))
(declare-fun a_354 () (Seq Element))
(declare-fun a_356 () (Seq Element))
(declare-fun a_358 () (Seq Element))
(declare-fun a_360 () (Seq Element))
(declare-fun a_362 () (Seq Element))
(declare-fun e_317 () Element)
(declare-fun e_319 () Element)
(declare-fun e_321 () Element)
(declare-fun e_323 () Element)
(declare-fun e_325 () Element)
(declare-fun e_327 () Element)
(declare-fun e_329 () Element)
(declare-fun e_331 () Element)
(declare-fun e_333 () Element)
(declare-fun e_335 () Element)
(declare-fun e_337 () Element)
(declare-fun e_339 () Element)
(declare-fun e_343 () Element)
(declare-fun e_345 () Element)
(declare-fun e_347 () Element)
(declare-fun e_349 () Element)
(declare-fun e_351 () Element)
(declare-fun e_353 () Element)
(declare-fun e_355 () Element)
(declare-fun e_357 () Element)
(declare-fun e_359 () Element)
(declare-fun e_361 () Element)
(declare-fun a1 () (Seq Element))
(declare-fun i0 () Int)
(declare-fun i1 () Int)
(declare-fun i2 () Int)
(declare-fun i3 () Int)
(declare-fun i4 () Int)
(declare-fun i5 () Int)
(assert (= a_318 (seq.update a1 i5 (seq.unit e_317))))
(assert (= a_320 (seq.update a_318 i3 (seq.unit e_319))))
(assert (= a_322 (seq.update a_320 i0 (seq.unit e_321))))
(assert (= a_324 (seq.update a_322 i1 (seq.unit e_323))))
(assert (= a_326 (seq.update a_324 i1 (seq.unit e_325))))
(assert (= a_328 (seq.update a_326 i4 (seq.unit e_327))))
(assert (= a_330 (seq.update a_328 i4 (seq.unit e_329))))
(assert (= a_332 (seq.update a_330 i0 (seq.unit e_331))))
(assert (= a_334 (seq.update a_332 i4 (seq.unit e_333))))
(assert (= a_336 (seq.update a_334 i5 (seq.unit e_335))))
(assert (= a_338 (seq.update a_336 i2 (seq.unit e_337))))
(assert (= a_340 (seq.update a_338 i0 (seq.unit e_339))))
(assert (= a_341 (seq.update a1 i3 (seq.unit e_319))))
(assert (= a_342 (seq.update a_341 i5 (seq.unit e_317))))
(assert (= a_344 (seq.update a_342 i1 (seq.unit e_343))))
(assert (= a_346 (seq.update a_344 i0 (seq.unit e_345))))
(assert (= a_348 (seq.update a_346 i4 (seq.unit e_347))))
(assert (= a_350 (seq.update a_348 i1 (seq.unit e_349))))
(assert (= a_352 (seq.update a_350 i4 (seq.unit e_351))))
(assert (= a_354 (seq.update a_352 i0 (seq.unit e_353))))
(assert (= a_356 (seq.update a_354 i4 (seq.unit e_355))))
(assert (= a_358 (seq.update a_356 i5 (seq.unit e_357))))
(assert (= a_360 (seq.update a_358 i1 (seq.unit e_359))))
(assert (= a_362 (seq.update a_360 i2 (seq.unit e_361))))
(assert (= e_317 (seq.nth a1 i3)))
(assert (= e_319 (seq.nth a1 i5)))
(assert (= e_321 (seq.nth a_320 i1)))
(assert (= e_323 (seq.nth a_320 i0)))
(assert (= e_325 (seq.nth a_324 i4)))
(assert (= e_327 (seq.nth a_324 i1)))
(assert (= e_329 (seq.nth a_328 i0)))
(assert (= e_331 (seq.nth a_328 i4)))
(assert (= e_333 (seq.nth a_332 i5)))
(assert (= e_335 (seq.nth a_332 i4)))
(assert (= e_337 (seq.nth a_336 i0)))
(assert (= e_339 (seq.nth a_336 i2)))
(assert (= e_343 (seq.nth a_342 i0)))
(assert (= e_345 (seq.nth a_342 i1)))
(assert (= e_347 (seq.nth a_346 i1)))
(assert (= e_349 (seq.nth a_346 i4)))
(assert (= e_351 (seq.nth a_350 i0)))
(assert (= e_353 (seq.nth a_350 i4)))
(assert (= e_355 (seq.nth a_354 i5)))
(assert (= e_357 (seq.nth a_354 i4)))
(assert (= e_359 (seq.nth a_358 i2)))
(assert (= e_361 (seq.nth a_358 i1)))
(assert (not (= a_340 a_362)))
(check-sat)
(exit)
